*SENSE:Minimize
NAME          MODEL
ROWS
 N  OBJ
 L  C0000000
 L  C0000001
 L  C0000002
COLUMNS
    MARK      'MARKER'                 'INTORG'
    X0000000  C0000001  -1.00000e+00
    X0000000  C0000000   2.50000e+00
    X0000000  C0000002  -2.00000e+00
    X0000000  OBJ       -1.00000e+00
    MARK      'MARKER'                 'INTEND'
    MARK      'MARKER'                 'INTORG'
    X0000001  C0000000   4.00000e+00
    X0000001  C0000002   1.00000e+00
    X0000001  OBJ       -3.00000e+00
    MARK      'MARKER'                 'INTEND'
RHS
    RHS       C0000000   3.00000e+01
    RHS       C0000001  -2.00000e+00
    RHS       C0000002   0.00000e+00
BOUNDS
 LO BND       X0000000   0.00000e+00
 LO BND       X0000001   0.00000e+00
ENDATA
